# polymerization of PS-CNT composite using REACTER

units real
boundary p p p

atom_style full
kspace_style pppm 1.0e-5
pair_style lj/class2/coul/long 8.5
angle_style class2
bond_style class2
dihedral_style class2
improper_style class2

pair_modify tail yes mix sixthpower
special_bonds lj/coul 0 0 1

read_data mixing.data &
  extra/bond/per/atom 5  &
  extra/angle/per/atom 15 &
  extra/dihedral/per/atom 15 &
  extra/improper/per/atom 25 &
  extra/special/per/atom 25
reset_atoms image all

molecule mol1 M-M_pre.mol
molecule mol2 M-M_post.mol
molecule mol3 M-P_pre.mol
molecule mol4 M-P_post.mol
molecule mol5 P-P_pre.mol
molecule mol6 P-P_post.mol

fix rxn all bond/react &
  stabilization yes statted_grp 0.03 &
  react R1 all 1 0 3.0 mol1 mol2 M-M.rxnmap &
  react R2 all 1 0 3.0 mol3 mol4 M-P.rxnmap &
  react R3 all 1 0 5.0 mol5 mol6 P-P.rxnmap

fix mynvt statted_grp_REACT nvt temp 530 530 100
group CNT molecule 1 2 3
fix myrec CNT recenter NULL 0 0 shift all
fix myspr all spring/self 0.1

write_dump all custom dump_i.lammpstrj id mol type xu yu zu

thermo 200

run 50000

reset_atoms image all

write_dump all custom dump_f.lammpstrj id mol type xu yu zu

# For video making
# dump myDump all custom 10 dump.lammpstrj id mol type xu yu zu
# run 1000