
units metal
boundary p p p
atom_style full

pair_style hybrid/overlay vashishta lj/cut/tip4p/long OW HW OW-HW HW-OW-HW 0.1546 10
kspace_style pppm/tip4p 1.0e-5
bond_style harmonic
angle_style harmonic

read_data adsorbed.data
molecule h2omol H2O.mol
create_atoms 0 random 3 3245 NULL mol h2omol 4585 overlap 2.0 maxtry 50

group SiO type Si O
group H2O type OW HW

pair_coeff * * vashishta SiO.1990.vashishta Si O NULL NULL
pair_coeff * * lj/cut/tip4p/long 0 0
pair_coeff Si OW lj/cut/tip4p/long 0.0057 4.42
pair_coeff O OW lj/cut/tip4p/long 0.0043 3.12
pair_coeff OW OW lj/cut/tip4p/long 0.008 3.1589
pair_coeff HW HW lj/cut/tip4p/long 0.0 0.0
bond_coeff OW-HW 0 0.9572
angle_coeff HW-OW-HW 0 104.52

variable oxygen atom type==label2type(atom,OW)
group oxygen dynamic all var oxygen
variable nO equal count(oxygen)

fix shak H2O shake 1.0e-5 200 0 b OW-HW a HW-OW-HW mol h2omol

compute ctH2O H2O temp
compute_modify thermo_temp dynamic yes
compute_modify ctH2O dynamic yes
fix mynvt1 H2O nvt temp 300 300 0.1
fix_modify mynvt1 temp ctH2O
fix mynvt2 SiO nvt temp 300 300 0.1

dump mydmp all atom 1000 dump.lammpstrj

timestep 0.001

thermo 250

run 5000
