
units real
atom_style full
bond_style harmonic
angle_style harmonic
dihedral_style harmonic
pair_style lj/cut/coul/long 10
kspace_style ewald 1e-5
special_bonds lj 0.0 0.0 0.5 coul 0.0 0.0 1.0 angle yes

read_data merge.data
include parameters.inc
group H2O type OW HW
group PEG type C CPos H HC OAlc OE

#dump viz all image 250 myimage-*.ppm type &
# type shiny 0.1 box no 0.01 &
# view 0 90 zoom 3 fsaa yes bond atom 0.8 size 1000 500
#dump_modify viz backcolor white &
# acolor OW red acolor HW white &
# acolor OE darkred acolor OAlc darkred &
# acolor C gray acolor CPos gray &
# acolor H white acolor HC white &
# adiam OW 0.2 adiam HW 0.2 &
# adiam C 2.8 adiam CPos 2.8 adiam OAlc 2.6 &
# adiam H 1.4 adiam HC 1.4 adiam OE 2.6
dump mydmp all atom 2000 dump.lammpstrj

fix mynvt all nvt temp 650 650 100
fix myrct PEG recenter 0 0 0 shift all
timestep 1.0

thermo 500
run 20000

# write_data merge.data # uncomment to write a .data file as well
