
variable sigma equal 3.405
variable epsilon equal 0.238
variable U0 equal 10*${epsilon}
variable dlt equal 1.0
variable x0 equal 5.0
variable k equal 0.5

units real
atom_style atomic
pair_style lj/cut 3.822
pair_modify shift yes
boundary p p p

region myreg block -15 15 -15 15 -15 15
create_box 2 myreg
create_atoms 2 single 0 0 0
create_atoms 1 random 199 34134 myreg overlap 3 maxtry 50

mass * 39.948
pair_coeff * * ${epsilon} ${sigma}
group topull type 2

variable U atom ${U0}*atan((x+${x0})/${dlt})-${U0}*atan((x-${x0})/${dlt})
variable F atom ${U0}/((x-${x0})^2/${dlt}^2+1)/${dlt}-${U0}/((x+${x0})^2/${dlt}^2+1)/${dlt}
fix myadf all addforce v_F 0.0 0.0 energy v_U

fix mynve all nve
fix mylgv all langevin 119.8 119.8 500 30917

dump mydmp all atom 1000 dump.lammpstrj

thermo 500

variable xdes equal 0
fix mytth topull spring tether ${k} ${xdes} 0 0 0

timestep 2.0
run 5000



run 2000
